c Generated map
c Size: 15 * 15, weights in range: 1 to 10, walls: True, with ratio 0.1
c dim 3 of 4
c
p sp 225 345
c graph contains 225 nodes and 345 arcs
c
a 1 16 5
a 16 1 5
a 1 2 7
a 2 1 7
a 2 17 5
a 17 2 5
a 2 3 2
a 3 2 2
a 3 18 3
a 18 3 3
a 5 20 6
a 20 5 6
a 5 6 8
a 6 5 8
a 6 21 3
a 21 6 3
a 6 7 4
a 7 6 4
a 7 22 1
a 22 7 1
a 7 8 4
a 8 7 4
a 8 23 10
a 23 8 10
a 8 9 10
a 9 8 10
a 9 24 3
a 24 9 3
a 9 10 2
a 10 9 2
a 10 11 7
a 11 10 7
a 11 26 2
a 26 11 2
a 11 12 3
a 12 11 3
a 12 27 8
a 27 12 8
a 15 30 6
a 30 15 6
a 16 31 1
a 31 16 1
a 16 17 2
a 17 16 2
a 17 32 10
a 32 17 10
a 17 18 4
a 18 17 4
a 18 33 8
a 33 18 8
a 18 19 10
a 19 18 10
a 19 34 9
a 34 19 9
a 19 20 7
a 20 19 7
a 20 35 1
a 35 20 1
a 20 21 6
a 21 20 6
a 21 22 9
a 22 21 9
a 22 37 3
a 37 22 3
a 22 23 2
a 23 22 2
a 23 38 8
a 38 23 8
a 23 24 7
a 24 23 7
a 24 39 7
a 39 24 7
a 26 41 7
a 41 26 7
a 26 27 6
a 27 26 6
a 27 42 8
a 42 27 8
a 27 28 6
a 28 27 6
a 28 43 10
a 43 28 10
a 28 29 8
a 29 28 8
a 29 30 1
a 30 29 1
a 30 45 4
a 45 30 4
a 31 46 10
a 46 31 10
a 31 32 10
a 32 31 10
a 32 47 4
a 47 32 4
a 32 33 3
a 33 32 3
a 33 48 7
a 48 33 7
a 33 34 6
a 34 33 6
a 34 49 2
a 49 34 2
a 34 35 8
a 35 34 8
a 35 50 5
a 50 35 5
a 37 52 3
a 52 37 3
a 37 38 1
a 38 37 1
a 38 39 1
a 39 38 1
a 39 54 8
a 54 39 8
a 39 40 7
a 40 39 7
a 40 55 2
a 55 40 2
a 40 41 4
a 41 40 4
a 41 56 2
a 56 41 2
a 41 42 7
a 42 41 7
a 42 57 7
a 57 42 7
a 42 43 1
a 43 42 1
a 43 58 8
a 58 43 8
a 45 60 6
a 60 45 6
a 46 61 5
a 61 46 5
a 46 47 4
a 47 46 4
a 47 62 2
a 62 47 2
a 47 48 5
a 48 47 5
a 48 63 1
a 63 48 1
a 48 49 3
a 49 48 3
a 49 64 10
a 64 49 10
a 49 50 6
a 50 49 6
a 50 51 4
a 51 50 4
a 51 66 10
a 66 51 10
a 51 52 8
a 52 51 8
a 52 67 4
a 67 52 4
a 54 69 6
a 69 54 6
a 54 55 6
a 55 54 6
a 55 70 10
a 70 55 10
a 55 56 5
a 56 55 5
a 56 57 6
a 57 56 6
a 57 72 2
a 72 57 2
a 57 58 7
a 58 57 7
a 58 73 1
a 73 58 1
a 58 59 8
a 59 58 8
a 59 74 9
a 74 59 9
a 59 60 7
a 60 59 7
a 61 76 5
a 76 61 5
a 61 62 1
a 62 61 1
a 62 77 8
a 77 62 8
a 62 63 7
a 63 62 7
a 63 78 9
a 78 63 9
a 63 64 4
a 64 63 4
a 64 79 7
a 79 64 7
a 66 81 10
a 81 66 10
a 66 67 10
a 67 66 10
a 67 82 8
a 82 67 8
a 67 68 1
a 68 67 1
a 68 83 8
a 83 68 8
a 68 69 4
a 69 68 4
a 69 84 7
a 84 69 7
a 69 70 5
a 70 69 5
a 70 85 9
a 85 70 9
a 72 73 8
a 73 72 8
a 73 88 2
a 88 73 2
a 73 74 5
a 74 73 5
a 74 89 3
a 89 74 3
a 76 91 10
a 91 76 10
a 76 77 9
a 77 76 9
a 77 78 3
a 78 77 3
a 78 93 2
a 93 78 2
a 78 79 5
a 79 78 5
a 79 94 4
a 94 79 4
a 79 80 2
a 80 79 2
a 80 95 9
a 95 80 9
a 80 81 6
a 81 80 6
a 81 96 1
a 96 81 1
a 81 82 1
a 82 81 1
a 82 83 4
a 83 82 4
a 83 98 9
a 98 83 9
a 83 84 9
a 84 83 9
a 84 99 7
a 99 84 7
a 84 85 3
a 85 84 3
a 85 100 2
a 100 85 2
a 88 103 2
a 103 88 2
a 88 89 2
a 89 88 2
a 89 104 5
a 104 89 5
a 89 90 5
a 90 89 5
a 90 105 5
a 105 90 5
a 91 106 2
a 106 91 2
a 93 108 4
a 108 93 4
a 93 94 8
a 94 93 8
a 94 109 5
a 109 94 5
a 94 95 5
a 95 94 5
a 95 110 5
a 110 95 5
a 95 96 5
a 96 95 5
a 96 111 5
a 111 96 5
a 98 113 10
a 113 98 10
a 98 99 4
a 99 98 4
a 99 114 6
a 114 99 6
a 99 100 5
a 100 99 5
a 100 115 1
a 115 100 1
a 100 101 7
a 101 100 7
a 101 116 10
a 116 101 10
a 101 102 1
a 102 101 1
a 102 117 4
a 117 102 4
a 102 103 6
a 103 102 6
a 103 118 4
a 118 103 4
a 103 104 10
a 104 103 10
a 104 119 10
a 119 104 10
a 104 105 9
a 105 104 9
a 105 120 8
a 120 105 8
a 106 121 8
a 121 106 8
a 106 107 2
a 107 106 2
a 107 122 6
a 122 107 6
a 107 108 4
a 108 107 4
a 108 123 9
a 123 108 9
a 108 109 9
a 109 108 9
a 109 124 4
a 124 109 4
a 109 110 5
a 110 109 5
a 110 125 6
a 125 110 6
a 110 111 4
a 111 110 4
a 111 126 7
a 126 111 7
a 113 128 5
a 128 113 5
a 113 114 2
a 114 113 2
a 114 129 10
a 129 114 10
a 114 115 5
a 115 114 5
a 115 130 6
a 130 115 6
a 115 116 5
a 116 115 5
a 116 131 2
a 131 116 2
a 116 117 6
a 117 116 6
a 117 132 5
a 132 117 5
a 117 118 4
a 118 117 4
a 118 133 4
a 133 118 4
a 118 119 2
a 119 118 2
a 119 134 8
a 134 119 8
a 119 120 7
a 120 119 7
a 120 135 2
a 135 120 2
a 121 136 3
a 136 121 3
a 121 122 1
a 122 121 1
a 122 123 8
a 123 122 8
a 123 138 5
a 138 123 5
a 123 124 3
a 124 123 3
a 124 139 5
a 139 124 5
a 124 125 6
a 125 124 6
a 125 140 3
a 140 125 3
a 125 126 10
a 126 125 10
a 126 141 5
a 141 126 5
a 126 127 10
a 127 126 10
a 127 142 3
a 142 127 3
a 127 128 7
a 128 127 7
a 128 143 6
a 143 128 6
a 128 129 7
a 129 128 7
a 129 144 3
a 144 129 3
a 129 130 9
a 130 129 9
a 130 145 2
a 145 130 2
a 130 131 4
a 131 130 4
a 131 146 1
a 146 131 1
a 131 132 4
a 132 131 4
a 132 147 6
a 147 132 6
a 132 133 1
a 133 132 1
a 133 148 6
a 148 133 6
a 133 134 5
a 134 133 5
a 134 149 5
a 149 134 5
a 134 135 1
a 135 134 1
a 135 150 3
a 150 135 3
a 138 153 7
a 153 138 7
a 138 139 2
a 139 138 2
a 139 154 2
a 154 139 2
a 139 140 2
a 140 139 2
a 140 155 3
a 155 140 3
a 140 141 10
a 141 140 10
a 141 156 3
a 156 141 3
a 141 142 9
a 142 141 9
a 142 157 4
a 157 142 4
a 142 143 5
a 143 142 5
a 143 158 9
a 158 143 9
a 143 144 10
a 144 143 10
a 144 159 8
a 159 144 8
a 144 145 4
a 145 144 4
a 145 160 10
a 160 145 10
a 145 146 10
a 146 145 10
a 146 147 6
a 147 146 6
a 147 162 3
a 162 147 3
a 147 148 10
a 148 147 10
a 148 163 5
a 163 148 5
a 148 149 5
a 149 148 5
a 149 164 1
a 164 149 1
a 149 150 6
a 150 149 6
a 150 165 10
a 165 150 10
a 152 167 8
a 167 152 8
a 152 153 3
a 153 152 3
a 153 168 5
a 168 153 5
a 153 154 8
a 154 153 8
a 154 169 9
a 169 154 9
a 154 155 3
a 155 154 3
a 155 170 6
a 170 155 6
a 155 156 9
a 156 155 9
a 156 171 2
a 171 156 2
a 156 157 5
a 157 156 5
a 157 172 8
a 172 157 8
a 157 158 5
a 158 157 5
a 158 173 2
a 173 158 2
a 158 159 6
a 159 158 6
a 159 174 6
a 174 159 6
a 159 160 3
a 160 159 3
a 160 175 1
a 175 160 1
a 162 177 3
a 177 162 3
a 162 163 1
a 163 162 1
a 163 178 9
a 178 163 9
a 163 164 9
a 164 163 9
a 164 165 7
a 165 164 7
a 165 180 9
a 180 165 9
a 166 181 7
a 181 166 7
a 166 167 9
a 167 166 9
a 167 182 2
a 182 167 2
a 167 168 5
a 168 167 5
a 168 183 6
a 183 168 6
a 168 169 4
a 169 168 4
a 169 184 2
a 184 169 2
a 169 170 5
a 170 169 5
a 170 185 9
a 185 170 9
a 170 171 1
a 171 170 1
a 171 186 9
a 186 171 9
a 171 172 4
a 172 171 4
a 172 187 6
a 187 172 6
a 172 173 10
a 173 172 10
a 173 188 4
a 188 173 4
a 173 174 4
a 174 173 4
a 174 189 9
a 189 174 9
a 174 175 4
a 175 174 4
a 175 190 5
a 190 175 5
a 177 192 7
a 192 177 7
a 177 178 4
a 178 177 4
a 178 193 7
a 193 178 7
a 180 195 7
a 195 180 7
a 181 196 3
a 196 181 3
a 181 182 7
a 182 181 7
a 182 197 6
a 197 182 6
a 182 183 2
a 183 182 2
a 183 198 1
a 198 183 1
a 183 184 2
a 184 183 2
a 184 199 5
a 199 184 5
a 184 185 6
a 185 184 6
a 185 200 1
a 200 185 1
a 185 186 1
a 186 185 1
a 186 201 2
a 201 186 2
a 186 187 10
a 187 186 10
a 187 202 7
a 202 187 7
a 187 188 7
a 188 187 7
a 188 203 9
a 203 188 9
a 188 189 9
a 189 188 9
a 189 204 1
a 204 189 1
a 189 190 8
a 190 189 8
a 190 205 9
a 205 190 9
a 190 191 10
a 191 190 10
a 191 206 6
a 206 191 6
a 191 192 3
a 192 191 3
a 192 207 3
a 207 192 3
a 192 193 10
a 193 192 10
a 193 208 2
a 208 193 2
a 193 194 1
a 194 193 1
a 194 209 9
a 209 194 9
a 194 195 6
a 195 194 6
a 196 197 4
a 197 196 4
a 197 212 4
a 212 197 4
a 197 198 2
a 198 197 2
a 198 213 4
a 213 198 4
a 198 199 9
a 199 198 9
a 199 214 3
a 214 199 3
a 199 200 8
a 200 199 8
a 200 215 6
a 215 200 6
a 200 201 3
a 201 200 3
a 201 216 3
a 216 201 3
a 201 202 5
a 202 201 5
a 202 217 5
a 217 202 5
a 202 203 9
a 203 202 9
a 203 218 6
a 218 203 6
a 203 204 4
a 204 203 4
a 204 219 8
a 219 204 8
a 204 205 7
a 205 204 7
a 205 220 7
a 220 205 7
a 205 206 2
a 206 205 2
a 206 221 1
a 221 206 1
a 206 207 1
a 207 206 1
a 207 222 4
a 222 207 4
a 207 208 2
a 208 207 2
a 208 223 2
a 223 208 2
a 208 209 7
a 209 208 7
a 209 224 3
a 224 209 3
a 212 213 9
a 213 212 9
a 213 214 4
a 214 213 4
a 214 215 3
a 215 214 3
a 215 216 5
a 216 215 5
a 216 217 8
a 217 216 8
a 217 218 2
a 218 217 2
a 218 219 6
a 219 218 6
a 219 220 1
a 220 219 1
a 220 221 6
a 221 220 6
a 221 222 5
a 222 221 5
a 222 223 5
a 223 222 5
a 223 224 3
a 224 223 3
a 224 225 6
a 225 224 6
